16901.0
1 0 1 0 0 1 1 1 1 1 0 1 0 1 1 1 1 1 0 1 1 0 0 0 1 1 0 0 1 0 
20 11 20 2 20 5 2 24 14 17 9 16 8 20 17 14 14 17 5 11 2 0 5 17 5 8 19 24 5 24 5 25 6 25 20 20 24 15 0 14 0 14 15 28 24 14 7 13 11 8 5 14 14 5 13 20 17 11 0 14 0 5 20 11 11 11 9 0 5 24 20 6 11 17 24 8 9 20 14 24 20 7 13 17 19 17 17 7 20 5 2 24 17 11 17 5 2 19 25 16 8 17 17 25 2 25 17 11 14 28 14 14 2 11 11 25 24 24 24 24 5 8 25 13 16 0 5 9 0 25 0 11 24 5 8 14 7 5 20 17 0 8 20 14 8 25 25 5 2 5 